Route #1: 22 25 51 62 19 5
Route #2: 28 60 48 32 13 55
Route #3: 31 49 9 47 15
Route #4: 61 38 23 24 17 43 12 6 21
Route #5: 29 44 16 40 8 30
Route #6: 10 53 11 57 2 34
Route #7: 3 4 59 46 56
Route #8: 20 36 45 1
Route #9: 39 42 37 7 27 50 18
Route #10: 52 33 35 26 58 14 54 41
cost 1754.79931640625